outputs/case_282.model.txt
underwriting_and_claims_staff_compliant = False
disciplinary_action_taken = False
risk_assessment_procedures_implemented = True
identity_and_consent_verification_ok = True
premium_source_assessed_and_appropriate = True
policyholder_understands_premium_usage = True
corrections_completed_within_deadlines = True
insurance_type_amount_premium_appropriate = True
underwriting_procedures_compliant = True
financial_underwriting_mechanism_implemented = True
board_approved = True
internal_control_executed = True
training_fair_treatment_65_plus_done = True
reports_fair_and_true = True
medical_exam_standards_defined = True
rate_setting_no_unreasonable_pricing = True
income_financial_status_verification_done = True
rejection_count_below_limit = True
sales_approval_procedures_followed = True
financial_underwriting_and_risk_assessment_ok = True
personal_data_preservation_compliant = True
insurance_product_rate_setting_compliant = True
underwriting_and_claims_execution_compliant = True
external_actuary_hired = True
underwriting_staff_qualified = True
internal_control_established = True
actuarial_staff_assigned = True
personal_data_deleted_after_period = True
product_content_complies_laws = True
actuarial_staff_hired = True
insured_identity_verified = True
signing_actuary_assigned = True
signed_by_authorized_personnel = True
board_approval_obtained = True
insurance_reporting_mechanism_implemented = True
foreign_currency_risk_assessed = True
personal_data_preservation_period_compliant = True
external_actuary_report_true = True
submitted_documents_truthful = True
contract_change_affecting_risk_assessed = True
rate_setting_reference_data_recent_and_relevant = True
signing_actuary_report_true = True
major_regulatory_requirements_met = True
sales_limit_warning_and_control_mechanism_established = True
signing_actuary_report_fair = True
internal_control_ok = True
underwriting_and_claims_procedures_executed = True
authorization_levels_defined = True
no_major_errors_or_omissions = True
internal_handling_established = True
premium_source_appropriate = True
insurance_product_pre_approval_compliant = True
internal_handling_ok = True
authorized_personnel_declaration_correct = True
personal_data_handling_compliant = True
insurance_reporting_mechanism_defined = True
rate_setting_original_data_acquired = True
sales_limit_within_risk_tolerance = True
policyholder_identity_verified = True
insurance_product_risk_control_compliant = True
internal_handling_executed = True
investment_insurance_risk_and_funds_assessed = True
rate_setting_risk_and_contract_terms_consistent = True
submission_method_compliant = True
external_actuary_report_fair = True
financial_underwriting_mechanism_defined = True
underwriting_staff_qualified_and_trained = True
beneficiary_consent_verified = True
underwriting_evaluation_documents_retained = True
reporting_documents_retained = True
external_actuary_hired_flag = True
contract_change_and_signature_verification_ok = True
required_documents_complete = True
reporting_mechanism_and_documentation_ok = True
premium_source_checked = True
inappropriate_products_not_offered = True
policyholder_and_insured_identity_and_signature_verified = True
penalty = False
policyholder_and_insured_appropriateness_ok = True
underwriting_guidelines_defined = True
staff_disciplinary_action_taken = False
reinsurance_arrangement_defined = True
reinsurance_arrangement_evaluated = True
non_aggressive_investment_loan_premium_not_accepted = True